200
400
320
318
311
310
308
306
305
304
303
299
299
298
295
294
294
293
291
291
289
286
286
285
280
279
279
279
278
276
275
275
274
274
273
273
271
271
269
267
267
267
265
260
260
259
258
257
257
257
256
255
252
251
250
247
247
242
241
240
239
237
235
232
231
231
230
230
226
224
224
221
221
219
219
218
216
213
211
211
209
209
209
206
205
205
204
204
204
204
203
200
199
198
198
197
195
194
194
193
189
189
188
188
188
187
183
179
178
178
175
174
173
172
171
170
170
168
167
166
166
165
164
163
156
151
150
147
146
141
140
140
138
137
134
133
132
129
125
122
122
118
117
115
114
111
111
110
110
109
106
105
103
103
103
102
101
101
101
100
100
99
99
92
92
90
83
83
82
80
79
78
77
75
75
73
71
71
71
70
70
67
67
66
63
62
60
59
58
58
57
56
53
52
50
50
48
45
44
44
44
41
